db/data/86932505027614239541003952801690410500.z3.out
-------------------
2500.265011309
